(declare-const b_0 Int)
(declare-const ab_0 Bool)
(declare-const temp_0_0 Bool)
(declare-const objective Int)
(declare-const b_1 Int)
(declare-const a_1 Int)
(declare-const a_0 Int)
(assert (= a_1 2))
(assert (= b_1 3))
(assert (or ab_0 (= temp_0_0 (> a_1 b_1))))
(assert (= objective (+ (ite ab_0 1 0))))